28
1 0 11
2 0 14
2 1 16
3 0 16
3 1 4
3 2 14
4 0 4
4 1 1
4 2 14
4 3 2
5 0 5
5 1 15
5 2 1
5 3 9
5 4 12
6 0 1
6 1 2
6 2 11
6 3 16
6 4 8
6 5 13
7 0 6
7 1 10
7 2 12
7 3 15
7 4 12
7 5 2
7 6 14
8 0 14
8 1 9
8 2 13
8 3 7
8 4 7
8 5 3
8 6 16
8 7 5
9 0 2
9 1 16
9 2 15
9 3 9
9 4 7
9 5 15
9 6 8
9 7 12
9 8 11
10 0 4
10 1 6
10 2 2
10 3 5
10 4 1
10 5 11
10 6 15
10 7 6
10 8 11
10 9 11
11 0 9
11 1 9
11 2 9
11 3 10
11 4 3
11 5 13
11 6 12
11 7 6
11 8 7
11 9 1
11 10 7
12 0 6
12 1 5
12 2 16
12 3 14
12 4 12
12 5 5
12 6 1
12 7 13
12 8 2
12 9 10
12 10 4
12 11 12
13 0 10
13 1 3
13 2 13
13 3 3
13 4 1
13 5 4
13 6 16
13 7 7
13 8 14
13 9 5
13 10 2
13 11 10
13 12 1
14 0 12
14 1 16
14 2 12
14 3 7
14 4 16
14 5 15
14 6 5
14 7 5
14 8 2
14 9 14
14 10 3
14 11 14
14 12 12
14 13 4
15 0 4
15 1 6
15 2 4
15 3 6
15 4 5
15 5 15
15 6 8
15 7 15
15 8 7
15 9 1
15 10 9
15 11 10
15 12 16
15 13 10
15 14 15
16 0 15
16 1 15
16 2 4
16 3 12
16 4 11
16 5 13
16 6 13
16 7 10
16 8 2
16 9 16
16 10 9
16 11 11
16 12 3
16 13 15
16 14 10
16 15 6
17 0 3
17 1 4
17 2 13
17 3 1
17 4 4
17 5 1
17 6 12
17 7 3
17 8 4
17 9 5
17 10 1
17 11 5
17 12 11
17 13 1
17 14 11
17 15 13
17 16 2
18 0 15
18 1 5
18 2 13
18 3 5
18 4 14
18 5 7
18 6 5
18 7 10
18 8 1
18 9 6
18 10 10
18 11 7
18 12 9
18 13 13
18 14 13
18 15 9
18 16 1
18 17 4
19 0 10
19 1 12
19 2 14
19 3 5
19 4 2
19 5 1
19 6 13
19 7 11
19 8 15
19 9 1
19 10 7
19 11 8
19 12 1
19 13 12
19 14 6
19 15 15
19 16 13
19 17 11
19 18 10
20 0 5
20 1 5
20 2 13
20 3 5
20 4 10
20 5 15
20 6 10
20 7 5
20 8 2
20 9 13
20 10 11
20 11 6
20 12 5
20 13 16
20 14 4
20 15 2
20 16 15
20 17 3
20 18 11
20 19 2
21 0 13
21 1 14
21 2 1
21 3 2
21 4 11
21 5 5
21 6 5
21 7 16
21 8 14
21 9 16
21 10 13
21 11 3
21 12 9
21 13 16
21 14 11
21 15 11
21 16 8
21 17 4
21 18 7
21 19 12
21 20 11
22 0 15
22 1 1
22 2 13
22 3 16
22 4 2
22 5 10
22 6 12
22 7 2
22 8 10
22 9 13
22 10 8
22 11 6
22 12 9
22 13 6
22 14 1
22 15 6
22 16 6
22 17 1
22 18 15
22 19 6
22 20 11
22 21 1
23 0 6
23 1 14
23 2 16
23 3 12
23 4 6
23 5 9
23 6 8
23 7 15
23 8 3
23 9 4
23 10 13
23 11 12
23 12 3
23 13 15
23 14 8
23 15 14
23 16 2
23 17 7
23 18 8
23 19 4
23 20 6
23 21 5
23 22 2
24 0 10
24 1 1
24 2 10
24 3 11
24 4 10
24 5 3
24 6 9
24 7 2
24 8 6
24 9 1
24 10 2
24 11 14
24 12 12
24 13 7
24 14 8
24 15 12
24 16 11
24 17 14
24 18 12
24 19 9
24 20 11
24 21 3
24 22 11
24 23 16
25 0 10
25 1 16
25 2 9
25 3 3
25 4 14
25 5 14
25 6 7
25 7 8
25 8 13
25 9 11
25 10 13
25 11 8
25 12 4
25 13 11
25 14 10
25 15 11
25 16 3
25 17 11
25 18 7
25 19 3
25 20 11
25 21 12
25 22 2
25 23 7
25 24 8
26 0 15
26 1 10
26 2 3
26 3 2
26 4 8
26 5 7
26 6 15
26 7 4
26 8 3
26 9 13
26 10 10
26 11 8
26 12 4
26 13 8
26 14 2
26 15 11
26 16 7
26 17 2
26 18 9
26 19 3
26 20 2
26 21 12
26 22 7
26 23 6
26 24 11
26 25 16
27 0 4
27 1 13
27 2 2
27 3 6
27 4 16
27 5 8
27 6 14
27 7 6
27 8 16
27 9 4
27 10 6
27 11 3
27 12 1
27 13 7
27 14 14
27 15 10
27 16 12
27 17 13
27 18 6
27 19 14
27 20 3
27 21 3
27 22 2
27 23 13
27 24 5
27 25 1
27 26 1
